89 146 159 55 130 157 195 49 98 186 16 198 172 75 60 110 135 104 132 143 191 160 177 119 188 127 136 12 10 95 35 79 63 70 141 37 9 85 86 152 102 24 66 73 114 144 187 31 22 179 57 133 150 125 54 90 80 91 40 46 162 129 124 58 97 197 148 183 115 23 29 193 32 96 3 7 184 20 105 26 189 38 103 169 123 154 107 149 116 175 199 61 50 118 161 164 156 165 56 138 87 131 121 74 120 19 11 117 68 14 158 100 69 8 155 194 111 180 25 17 173 21 122 52 53 77 33 145 2 178 43 101 5 192 134 4 93 139 18 44 181 166 112 168 64 65 182 106 34 88 174 62 1 15 76 28 170 142 45 41 94 99 83 196 67 163 81 153 0 27 190 30 36 176 109 113 71 147 51 92 185 108 39 151 128 140 137 126 47 59 6 171 82 72 84 48 13 78 42 167 

